
Gurobi 11.0.3 (linux64) logging started Mon Aug 25 13:31:15 2025

Set parameter LogFile to value "/home/yihong/Coding/OR_SUC/SUC_epstheta_results_bigM100000_thread4/case24_ieee_rts_theta0.1_epsilon0.1_gurobi_seed220000_num_gen100_N_WDR50_load_scaling_factor1_proposed_eps_T4quadra_cost_bc1.03.txt"
Set parameter TimeLimit to value 3600
Gurobi Optimizer version 11.0.3 build v11.0.3rc0 (linux64 - "Ubuntu 20.04.6 LTS")

CPU model: AMD EPYC 7532 32-Core Processor, instruction set [SSE2|AVX|AVX2]
Thread count: 64 physical cores, 128 logical processors, using up to 4 threads

Academic license 2399124 - for non-commercial use only - registered to yi___@ed.ac.uk
Optimize a model with 9128 rows, 5011 columns and 217718 nonzeros
Model fingerprint: 0xba00d9f0
Model has 400 quadratic constraints
Variable types: 4611 continuous, 400 integer (400 binary)
Coefficient statistics:
  Matrix range     [3e-04, 2e+03]
  QMatrix range    [2e-03, 8e-03]
  QLMatrix range   [2e-01, 6e+01]
  Objective range  [1e+00, 1e+00]
  Bounds range     [1e+00, 1e+00]
  RHS range        [1e+00, 8e+03]
Presolve removed 7686 rows and 2324 columns
Presolve time: 0.05s
Presolved: 1442 rows, 2687 columns, 9208 nonzeros
Presolved model has 400 quadratic constraint(s)
Variable types: 2287 continuous, 400 integer (400 binary)

Root relaxation: objective 4.828303e+03, 972 iterations, 0.01 seconds (0.01 work units)

    Nodes    |    Current Node    |     Objective Bounds      |     Work
 Expl Unexpl |  Obj  Depth IntInf | Incumbent    BestBd   Gap | It/Node Time

     0     0 4828.30272    0    8          - 4828.30272      -     -    0s
     0     0 5862.01366    0   96          - 5862.01366      -     -    0s
     0     0 16064.3697    0  202          - 16064.3697      -     -    0s
     0     0 53103.0408    0  215          - 53103.0408      -     -    0s
     0     0 61068.7353    0   62          - 61068.7353      -     -    0s
     0     0 61073.2137    0   62          - 61073.2137      -     -    0s
     0     0 61080.6903    0   54          - 61080.6903      -     -    0s
     0     0 61080.6964    0   54          - 61080.6964      -     -    0s
     0     0 61080.7790    0   54          - 61080.7790      -     -    0s
     0     0 61080.7790    0   54          - 61080.7790      -     -    0s
     0     2 61080.8135    0   54          - 61080.8135      -     -    0s
H   84    97                    61111.622612 61084.6490  0.04%  11.3    0s
*   84    97              25    61111.622612 61084.6490  0.04%  11.4    0s

Cutting planes:
  Implied bound: 145
  MIR: 60
  Flow cover: 198

Explored 106 nodes (5137 simplex iterations) in 0.70 seconds (0.67 work units)
Thread count was 4 (of 128 available processors)

Solution count 2: 61111.6 61111.6 

Optimal solution found (tolerance 1.00e-03)
Warning: max constraint violation (8.1751e-08) exceeds tolerance
Best objective 6.111162261190e+04, best bound 6.108464902628e+04, gap 0.0441%

Gurobi 11.0.3 (linux64) logging started Mon Aug 25 13:31:15 2025

Set parameter LogFile to value "/home/yihong/Coding/OR_SUC/SUC_epstheta_results_bigM100000_thread4/case24_ieee_rts_theta0.1_epsilon0.1_gurobi_seed220000_num_gen100_N_WDR50_load_scaling_factor1_proposed_eps_T4quadra_cost_bc1.03.txt"
Set parameter TimeLimit to value 3600
Gurobi Optimizer version 11.0.3 build v11.0.3rc0 (linux64 - "Ubuntu 20.04.6 LTS")

CPU model: AMD EPYC 7532 32-Core Processor, instruction set [SSE2|AVX|AVX2]
Thread count: 64 physical cores, 128 logical processors, using up to 4 threads

Academic license 2399124 - for non-commercial use only - registered to yi___@ed.ac.uk
Optimize a model with 9128 rows, 5012 columns and 218907 nonzeros
Model fingerprint: 0xda7e3914
Model has 401 quadratic constraints
Variable types: 4612 continuous, 400 integer (400 binary)
Coefficient statistics:
  Matrix range     [3e-04, 2e+03]
  QMatrix range    [2e-03, 5e+01]
  QLMatrix range   [2e-01, 6e+01]
  Objective range  [1e+00, 1e+00]
  Bounds range     [1e-01, 1e+00]
  RHS range        [1e+00, 6e+04]
  QRHS range       [5e+00, 5e+00]
Presolve removed 7081 rows and 2029 columns
Presolve time: 0.05s
Presolved: 2449 rows, 3383 columns, 14627 nonzeros
Presolved model has 400 quadratic constraint(s)
Presolved model has 1 bilinear constraint(s)

Solving non-convex MIQCP

Variable types: 2981 continuous, 402 integer (402 binary)

Root relaxation: objective 1.386183e-03, 3293 iterations, 0.09 seconds (0.12 work units)

    Nodes    |    Current Node    |     Objective Bounds      |     Work
 Expl Unexpl |  Obj  Depth IntInf | Incumbent    BestBd   Gap | It/Node Time

     0     0    0.00139    0    6          -    0.00139      -     -    0s
     0     0    0.00139    0    9          -    0.00139      -     -    0s
H    0     0                       0.0192001    0.00139  92.8%     -    0s
     0     0    0.01819    0    5    0.01920    0.01819  5.27%     -    0s
     0     0    0.01819    0    5    0.01920    0.01819  5.26%     -    0s
     0     0    0.01820    0    5    0.01920    0.01820  5.23%     -    0s
     0     0    0.01820    0    5    0.01920    0.01820  5.23%     -    0s
     0     0    0.01820    0    5    0.01920    0.01820  5.23%     -    0s
     0     0    0.01820    0    5    0.01920    0.01820  5.23%     -    0s
H    0     0                       0.0182468    0.01820  0.28%     -    0s
     0     0    0.01822    0    7    0.01825    0.01822  0.12%     -    0s
H    0     0                       0.0182468    0.01822  0.12%     -    0s
H    0     0                       0.0182457    0.01822  0.12%     -    0s

Cutting planes:
  Gomory: 1
  Implied bound: 4
  MIR: 2
  RLT: 1

Explored 1 nodes (4736 simplex iterations) in 0.87 seconds (0.66 work units)
Thread count was 4 (of 128 available processors)

Solution count 4: 0.0182457 0.0182468 0.0182468 0.0192001 

Optimal solution found (tolerance 1.00e-03)
Best objective 1.824570121466e-02, best bound 1.824154007171e-02, gap 0.0228%
